Test: battleship-07-13-sat.cnf
Options: -no-inverting-opt -sym-usage-var-bump
WARNING: for repeatability, setting FPU to use double precision
============================[ Problem Statistics ]=============================
|                                                                             |
|  Number of symmetries:           12                                         |
|  Number of invertingSyms:         0                                         |
|  Number of variables:            91                                         |
|  Number of clauses:             322                                         |
|  Parse time:                   0.00 s                                       |
|                                                                             |
============================[ Search Statistics ]==============================
| Conflicts |          ORIGINAL         |          LEARNT          | Progress |
|           |    Vars  Clauses Literals |    Limit  Clauses Lit/Cl |          |
===============================================================================
|       100 |      91      322     1183 |      118      138     44 |  0.012 % |
===============================================================================
restarts              : 2
conflicts             : 141            (inf /sec)
symconflicts          : 7              (inf /sec)
decisions             : 271            (0.00 % random) (inf /sec)
propagations          : 1804           (inf /sec)
sympropagations       : 40             (inf /sec)
conflict literals     : 5835           (2.00 % deleted)
literals     : 5835           (2.00 % deleted)

HEURISTIC USAGES
random                : 0           
activity w/ lookahead : 0           
activity no lookahead : 0           
original sp           : 270         
sym count             : 0           

Memory used           : 5.00 MB
CPU time              : 0 s

SATISFIABLE
